NAME : rnd17_50.tsp.tsp.optbc.tour
TYPE : TOUR
DIMENSION : 50
TOUR_SECTION
1
19
6
8
12
36
15
4
2
44
39
21
33
46
27
41
18
45
16
9
26
49
5
7
31
34
29
47
13
14
32
37
25
40
10
20
48
50
23
24
38
30
17
42
35
11
28
22
43
3
-1